SumColouring/JavaBacktracker/RandomInstances/40_0.25_3.col
c File: instances/40_0.25_3.col
c
c Description: Random graph of size 40 vertices and P(0.25) of edges between any two vertices.
p col 40 780
e 1 3
e 1 8
e 1 10
e 1 11
e 1 36
e 1 37
e 1 39
e 1 40
e 2 3
e 2 12
e 2 15
e 2 16
e 2 21
e 2 25
e 2 26
e 2 31
e 2 40
e 3 7
e 3 10
e 3 13
e 3 15
e 3 26
e 3 27
e 3 30
e 3 36
e 4 15
e 4 19
e 4 20
e 4 23
e 4 25
e 4 31
e 4 36
e 4 38
e 5 8
e 5 12
e 5 14
e 5 15
e 5 16
e 5 19
e 5 21
e 5 22
e 5 33
e 5 34
e 5 35
e 5 37
e 5 38
e 5 40
e 6 12
e 6 13
e 6 15
e 6 17
e 6 25
e 7 13
e 7 17
e 7 19
e 7 23
e 7 25
e 7 33
e 7 34
e 7 37
e 7 38
e 8 14
e 8 15
e 8 21
e 8 22
e 8 23
e 8 32
e 8 36
e 8 37
e 9 11
e 9 16
e 9 17
e 9 18
e 9 21
e 9 26
e 9 31
e 9 39
e 10 12
e 10 18
e 10 21
e 10 23
e 10 25
e 10 28
e 10 32
e 10 36
e 10 38
e 11 16
e 11 29
e 11 32
e 12 18
e 12 26
e 12 27
e 12 31
e 12 34
e 13 15
e 13 19
e 13 22
e 13 23
e 13 26
e 13 28
e 13 30
e 13 33
e 13 35
e 14 17
e 14 31
e 14 34
e 14 35
e 14 37
e 14 39
e 15 16
e 15 18
e 15 21
e 15 22
e 15 23
e 15 27
e 15 28
e 15 38
e 16 18
e 16 21
e 16 23
e 16 25
e 16 35
e 16 38
e 16 40
e 17 18
e 17 37
e 17 38
e 18 22
e 18 29
e 18 36
e 18 37
e 19 21
e 19 25
e 19 32
e 19 35
e 20 22
e 20 32
e 20 38
e 21 22
e 21 25
e 21 27
e 21 35
e 21 38
e 22 31
e 22 33
e 22 37
e 22 38
e 23 24
e 23 26
e 24 27
e 24 31
e 24 33
e 24 35
e 25 27
e 25 33
e 25 36
e 25 38
e 25 39
e 26 28
e 26 32
e 26 33
e 26 34
e 26 37
e 27 30
e 27 33
e 27 40
e 28 33
e 28 34
e 29 38
e 29 39
e 30 36
e 31 34
e 31 38
e 31 39
e 32 34
e 33 39
e 34 39
e 35 37
e 35 40
e 36 37
e 36 38
e 37 38
e 39 40